NAME : OMNETRUN
COMMENT : 524.61
TYPE : CVRP
DIMENSION : 21
EDGE_WEIGHT_TYPE : EUC_2D
CAPACITY : 21
NODE_COORD_SECTION
1 0.107093 -0.77924
2 113.27 -623.788
3 196.937 -1460.51
4 170.463 -2360.01
5 154.335 -2781.31
6 47.4068 -3360.06
7 41.7469 -4094.02
8 41.0637 -4565.14
9 468.814 -1166.11
10 258.596 -1921.82
11 437.532 -3788.21
12 468.501 -4213.05
13 388.982 -4624.07
14 302.563 -5107.25
15 626.852 -1780.27
16 518.832 -2186.89
17 676.596 -2739.81
18 734.92 -3149.66
19 777.2 -581.467
20 901.565 -927.703
21 859.726 -1492.05
DEMAND_SECTION
1 0
2 1
3 1
4 1
5 1
6 1
7 1
8 1
9 1
10 1
11 1
12 1
13 1
14 1
15 1
16 1
17 1
18 1
19 1
20 1
21 1
DEPOT_SECTION
1
-1
EOF
